N = 11;
H = 6;
T = 2;

avail = array3d(1..N, 1..H, 1..T, [3, 10, 4, 10, 10, 3, 9, 4, 7, 4, 3, 7, 6, 1, 7, 7, 8, 8, 6, 8, 5, 4, 7, 0, 8, 4, 3, 3, 1, 5, 0, 9, 7, 2, 1, 6, 4, 10, 4, 1, 4, 7, 0, 5, 4, 6, 9, 9, 3, 10, 10, 9, 2, 5, 0, 8, 1, 2, 8, 1, 1, 6, 0, 3, 1, 7, 3, 0, 1, 8, 4, 8, 1, 1, 5, 10, 10, 0, 4, 0, 5, 4, 1, 5, 3, 7, 10, 0, 6, 9, 10, 4, 2, 10, 6, 8, 3, 6, 10, 9, 3, 4, 10, 0, 10, 6, 9, 3, 9, 8, 9, 1, 7, 8, 8, 5, 2, 1, 4, 6, 9, 10, 10, 8, 8, 4, 2, 2, 3, 6, 8, 6]);

r = array2d(1..H, 1..T, [3, 4, 1, 0, 4, 5, 4, 5, 2, 5, 5, 0]);
